(set-info :source |printed by MathSAT|)
(declare-fun |!{$(in_main#0)<password.1>}| () (Array Int Int))
(declare-fun |!{$(in_main#0)<password.1>}.next| () (Array Int Int))
(declare-fun |!{$(in_main#0)<guess.2>}| () (Array Int Int))
(declare-fun |!{$(in_main#0)<guess.2>}.next| () (Array Int Int))
(declare-fun |!{$(in_main#0)<SIZE>}| () Int)
(declare-fun |!{$(in_main#0)<SIZE>}.next| () Int)
(declare-fun |!{$(in_main#0)<i>}| () Int)
(declare-fun |!{$(in_main#0)<i>}.next| () Int)
(declare-fun |!{$(in_main#0)<result>}| () Int)
(declare-fun |!{$(in_main#0)<result>}.next| () Int)
(declare-fun |!{$(in_main#0)<x>}| () Int)
(declare-fun |!{$(in_main#0)<x>}.next| () Int)
(declare-fun |!{$(in_main#0)<$(in___VERIFIER_nondet_int#0)<h#<__VERIFIER_nondet_int.return>>>}| () Int)
(declare-fun |!{$(in_main#0)<$(in___VERIFIER_nondet_int#1)<h#<__VERIFIER_nondet_int.return>>>}| () Int)
(declare-fun |!{$(in_main#0)<$(in___VERIFIER_nondet_int#2)<h#<__VERIFIER_nondet_int.return>>>}| () Int)
(declare-fun !pc () Int)
(declare-fun !pc.next () Int)
(declare-fun |%{$(in_main#0)<x>}#1| () Int)
(declare-fun |%{$(in_main#0)<password.1>}#1| () (Array Int Int))
(declare-fun |%{$(in_main#0)<guess.2>}#1| () (Array Int Int))
(declare-fun |%{$(in_main#0)<result>}#2| () Int)
(define-fun .def_37 () Int (! !pc :next !pc.next))
(define-fun .def_40 () Bool (! (= .def_37 2) :init true))
(define-fun .def_183 () Bool (= .def_37 30))
(define-fun .def_159 () Bool (= !pc.next 59))
(define-fun .def_186 () Bool (and .def_159 .def_183))
(define-fun .def_10 () (Array Int Int) (! |!{$(in_main#0)<guess.2>}| :next |!{$(in_main#0)<guess.2>}.next|))
(define-fun .def_81 () Bool (= .def_10 |!{$(in_main#0)<guess.2>}.next|))
(define-fun .def_8 () (Array Int Int) (! |!{$(in_main#0)<password.1>}| :next |!{$(in_main#0)<password.1>}.next|))
(define-fun .def_79 () Bool (= .def_8 |!{$(in_main#0)<password.1>}.next|))
(define-fun .def_92 () Bool (and .def_79 .def_81))
(define-fun .def_12 () Int (! |!{$(in_main#0)<SIZE>}| :next |!{$(in_main#0)<SIZE>}.next|))
(define-fun .def_83 () Bool (= .def_12 |!{$(in_main#0)<SIZE>}.next|))
(define-fun .def_93 () Bool (and .def_83 .def_92))
(define-fun .def_58 () Bool (= |!{$(in_main#0)<i>}.next| 0))
(define-fun .def_179 () Bool (and .def_58 .def_93))
(define-fun .def_16 () Int (! |!{$(in_main#0)<result>}| :next |!{$(in_main#0)<result>}.next|))
(define-fun .def_87 () Bool (= .def_16 |!{$(in_main#0)<result>}.next|))
(define-fun .def_180 () Bool (and .def_87 .def_179))
(define-fun .def_18 () Int (! |!{$(in_main#0)<x>}| :next |!{$(in_main#0)<x>}.next|))
(define-fun .def_89 () Bool (= .def_18 |!{$(in_main#0)<x>}.next|))
(define-fun .def_181 () Bool (and .def_89 .def_180))
(define-fun .def_14 () Int (! |!{$(in_main#0)<i>}| :next |!{$(in_main#0)<i>}.next|))
(define-fun .def_122 () Bool (<= .def_12 .def_14))
(define-fun .def_182 () Bool (and .def_122 .def_181))
(define-fun .def_187 () Bool (and .def_182 .def_186))
(define-fun .def_65 () Bool (= !pc.next 30))
(define-fun .def_184 () Bool (and .def_65 .def_183))
(define-fun .def_170 () (Array Int Int) (store .def_10 .def_14 |!{$(in_main#0)<$(in___VERIFIER_nondet_int#2)<h#<__VERIFIER_nondet_int.return>>>}|))
(define-fun .def_172 () Bool (= |!{$(in_main#0)<guess.2>}.next| .def_170))
(define-fun .def_169 () (Array Int Int) (store .def_8 .def_14 |!{$(in_main#0)<$(in___VERIFIER_nondet_int#1)<h#<__VERIFIER_nondet_int.return>>>}|))
(define-fun .def_171 () Bool (= |!{$(in_main#0)<password.1>}.next| .def_169))
(define-fun .def_173 () Bool (and .def_171 .def_172))
(define-fun .def_174 () Bool (and .def_83 .def_173))
(define-fun .def_142 () Int (* (- 1) |!{$(in_main#0)<i>}.next|))
(define-fun .def_143 () Int (+ .def_14 .def_142))
(define-fun .def_144 () Bool (= .def_143 (- 1)))
(define-fun .def_175 () Bool (and .def_144 .def_174))
(define-fun .def_176 () Bool (and .def_87 .def_175))
(define-fun .def_177 () Bool (and .def_89 .def_176))
(define-fun .def_123 () Bool (not .def_122))
(define-fun .def_178 () Bool (and .def_123 .def_177))
(define-fun .def_185 () Bool (and .def_178 .def_184))
(define-fun .def_188 () Bool (or .def_185 .def_187))
(define-fun .def_158 () Bool (= .def_37 59))
(define-fun .def_115 () Bool (= !pc.next 0))
(define-fun .def_165 () Bool (and .def_115 .def_158))
(define-fun .def_130 () Bool (= .def_16 0))
(define-fun .def_85 () Bool (= .def_14 |!{$(in_main#0)<i>}.next|))
(define-fun .def_94 () Bool (and .def_85 .def_93))
(define-fun .def_95 () Bool (and .def_87 .def_94))
(define-fun .def_103 () Bool (and .def_89 .def_95))
(define-fun .def_155 () Bool (and .def_103 .def_130))
(define-fun .def_156 () Bool (and .def_122 .def_155))
(define-fun .def_166 () Bool (and .def_156 .def_165))
(define-fun .def_111 () Bool (= !pc.next 90))
(define-fun .def_162 () Bool (and .def_111 .def_158))
(define-fun .def_151 () Bool (= |!{$(in_main#0)<x>}.next| 0))
(define-fun .def_152 () Bool (and .def_95 .def_151))
(define-fun .def_139 () Bool (not .def_130))
(define-fun .def_153 () Bool (and .def_139 .def_152))
(define-fun .def_154 () Bool (and .def_122 .def_153))
(define-fun .def_163 () Bool (and .def_154 .def_162))
(define-fun .def_160 () Bool (and .def_158 .def_159))
(define-fun .def_146 () Bool (= |!{$(in_main#0)<result>}.next| |%{$(in_main#0)<result>}#2|))
(define-fun .def_145 () Bool (and .def_93 .def_144))
(define-fun .def_147 () Bool (and .def_145 .def_146))
(define-fun .def_148 () Bool (and .def_89 .def_147))
(define-fun .def_133 () Bool (= |%{$(in_main#0)<result>}#2| 0))
(define-fun .def_125 () Int (select .def_10 .def_14))
(define-fun .def_124 () Int (select .def_8 .def_14))
(define-fun .def_126 () Bool (= .def_124 .def_125))
(define-fun .def_127 () Bool (not .def_126))
(define-fun .def_135 () Bool (and .def_127 .def_133))
(define-fun .def_132 () Bool (= .def_16 |%{$(in_main#0)<result>}#2|))
(define-fun .def_134 () Bool (and .def_126 .def_132))
(define-fun .def_136 () Bool (or .def_134 .def_135))
(define-fun .def_149 () Bool (and .def_136 .def_148))
(define-fun .def_150 () Bool (and .def_123 .def_149))
(define-fun .def_161 () Bool (and .def_150 .def_160))
(define-fun .def_164 () Bool (or .def_161 .def_163))
(define-fun .def_167 () Bool (or .def_164 .def_166))
(define-fun .def_106 () Bool (= .def_37 90))
(define-fun .def_116 () Bool (and .def_106 .def_115))
(define-fun .def_68 () Bool (<= .def_12 .def_18))
(define-fun .def_104 () Bool (and .def_68 .def_103))
(define-fun .def_117 () Bool (and .def_104 .def_116))
(define-fun .def_112 () Bool (and .def_106 .def_111))
(define-fun .def_97 () Int (* (- 1) |!{$(in_main#0)<x>}.next|))
(define-fun .def_98 () Int (+ .def_18 .def_97))
(define-fun .def_99 () Bool (= .def_98 (- 1)))
(define-fun .def_100 () Bool (and .def_95 .def_99))
(define-fun .def_71 () Int (select .def_10 .def_18))
(define-fun .def_70 () Int (select .def_8 .def_18))
(define-fun .def_72 () Bool (= .def_70 .def_71))
(define-fun .def_73 () Int (ite .def_72 1 0))
(define-fun .def_74 () Bool (= .def_73 0))
(define-fun .def_75 () Bool (not .def_74))
(define-fun .def_101 () Bool (and .def_75 .def_100))
(define-fun .def_69 () Bool (not .def_68))
(define-fun .def_102 () Bool (and .def_69 .def_101))
(define-fun .def_113 () Bool (and .def_102 .def_112))
(define-fun .def_108 () Bool (= !pc.next 110))
(define-fun .def_109 () Bool (and .def_106 .def_108))
(define-fun .def_80 () Bool (and .def_74 .def_79))
(define-fun .def_82 () Bool (and .def_80 .def_81))
(define-fun .def_84 () Bool (and .def_82 .def_83))
(define-fun .def_86 () Bool (and .def_84 .def_85))
(define-fun .def_88 () Bool (and .def_86 .def_87))
(define-fun .def_90 () Bool (and .def_88 .def_89))
(define-fun .def_91 () Bool (and .def_69 .def_90))
(define-fun .def_110 () Bool (and .def_91 .def_109))
(define-fun .def_114 () Bool (or .def_110 .def_113))
(define-fun .def_118 () Bool (or .def_114 .def_117))
(define-fun .def_66 () Bool (and .def_40 .def_65))
(define-fun .def_62 () Bool (= |!{$(in_main#0)<x>}.next| |%{$(in_main#0)<x>}#1|))
(define-fun .def_60 () Bool (= |!{$(in_main#0)<result>}.next| 1))
(define-fun .def_56 () Bool (= |!{$(in_main#0)<SIZE>}.next| |!{$(in_main#0)<$(in___VERIFIER_nondet_int#0)<h#<__VERIFIER_nondet_int.return>>>}|))
(define-fun .def_54 () Bool (= |!{$(in_main#0)<guess.2>}.next| |%{$(in_main#0)<guess.2>}#1|))
(define-fun .def_53 () Bool (= |!{$(in_main#0)<password.1>}.next| |%{$(in_main#0)<password.1>}#1|))
(define-fun .def_55 () Bool (and .def_53 .def_54))
(define-fun .def_57 () Bool (and .def_55 .def_56))
(define-fun .def_59 () Bool (and .def_57 .def_58))
(define-fun .def_61 () Bool (and .def_59 .def_60))
(define-fun .def_63 () Bool (and .def_61 .def_62))
(define-fun .def_67 () Bool (and .def_63 .def_66))
(define-fun .def_119 () Bool (or .def_67 .def_118))
(define-fun .def_168 () Bool (or .def_119 .def_167))
(define-fun .def_189 () Bool (! (or .def_168 .def_188) :trans true))
(define-fun .def_120 () Bool (= .def_37 110))
(define-fun .def_190 () Bool (! (not .def_120) :invar-property 0 :invar-property-name ||))
(assert true)
